% demand
num_movements = 30;
loading_factor = [1050, 1800, 1850, 1800, 1700, 1650, 1450, 1000, 1150, 1650, 1900, 1250, 1100, 1100, 1300, 1600, 1650, 800, 850, 800, 1400, 1250, 1500, 1550, 1650, 1700, 1050, 1400, 1450, 1000];
pickup_time = [0, 0, 0, 0, 2, 2, 2, 3, 3, 3, 3, 3, 4, 4, 4, 4, 5, 5, 5, 5, 7, 8, 8, 9, 10, 10, 11, 11, 11, 11];
delivery_time = [3, 2, 1, 2, 3, 3, 3, 4, 4, 5, 4, 4, 5, 5, 8, 7, 9, 8, 8, 9, 8, 9, 9, 11, 11, 12, 12, 12, 12, 12];

% transporter definition
total_capacity = 7000;
num_decks = 3;
capacity = [3000, 1000, 3000];

% ways out of decks
num_ways_out = 1;
paths_out = array3d(decks, ways_out, decks, [
% ways out of deck d1
2, 3, 0, 

% ways out of deck d2
3, 0, 0, 

% ways out of deck d3
0, 0, 0,	

]);

